
Gurobi 7.5.2 (linux64) logging started Sat Jul  7 16:01:17 2018

Changed value of parameter LogFile to result/ilp/simNo_9-n_100-m_40-s_4-minVAF_0.05-cov_10000-k_2-fn_0.15-fp_0.0001-na_0.15.ILP.gurobiSolverLog
   Prev: gurobi.log  Default: 
Changed value of parameter TimeLimit to 86400.0
   Prev: 1e+100  Min: 0.0  Max: 1e+100  Default: 1e+100
Optimize a model with 639293 rows, 10765 columns and 1940420 nonzeros
Variable types: 0 continuous, 10765 integer (10765 binary)
Coefficient statistics:
  Matrix range     [2e-04, 4e+00]
  Objective range  [1e+00, 1e+01]
  Bounds range     [1e+00, 1e+00]
  RHS range        [3e-01, 2e+00]
Found heuristic solution: objective -13410.60734
Presolve removed 132209 rows and 1025 columns (presolve time = 5s) ...
Presolve removed 132789 rows and 1025 columns (presolve time = 12s) ...
Presolve removed 190789 rows and 1605 columns (presolve time = 16s) ...
Presolve removed 190789 rows and 1605 columns
Presolve time: 17.21s
Presolved: 448504 rows, 9160 columns, 1348165 nonzeros
Variable types: 0 continuous, 9160 integer (9160 binary)
Presolved: 9160 rows, 457664 columns, 1357325 nonzeros

Presolve removed 9160 rows and 457664 columns

Root simplex log...

Iteration    Objective       Primal Inf.    Dual Inf.      Time
       0    2.2914087e+01   0.000000e+00   6.389800e+04     21s
   26678   -2.4415683e+02   0.000000e+00   4.580800e+04     25s
   39599   -2.8328836e+02   0.000000e+00   0.000000e+00     29s
   39599   -2.8328836e+02   0.000000e+00   0.000000e+00     30s

Root relaxation: objective -2.832884e+02, 39599 iterations, 10.70 seconds
Total elapsed time = 30.03s
Total elapsed time = 65.82s
Total elapsed time = 93.58s
Total elapsed time = 108.78s

    Nodes    |    Current Node    |     Objective Bounds      |     Work
 Expl Unexpl |  Obj  Depth IntInf | Incumbent    BestBd   Gap | It/Node Time

     0     0 -283.28836    0  785 -13410.607 -283.28836  97.9%     -  117s
H    0     0                    -397.5035992 -283.28836  28.7%     -  120s
H    0     0                    -382.5619598 -283.28836  25.9%     -  121s
H    0     0                    -351.2914774 -283.28836  19.4%     -  129s
     0     0 -288.46022    0  886 -351.29148 -288.46022  17.9%     -  263s
H    0     0                    -347.8065457 -288.46022  17.1%     -  279s
     0     0 -289.04403    0  936 -347.80655 -289.04403  16.9%     -  362s
     0     0 -292.34811    0  928 -347.80655 -292.34811  15.9%     - 17145s
     0     0 -292.46575    0  815 -347.80655 -292.46575  15.9%     - 17423s
     0     0 -292.46575    0  818 -347.80655 -292.46575  15.9%     - 17426s
     0     0 -293.89128    0  913 -347.80655 -293.89128  15.5%     - 28140s
H    0     0                    -347.7084762 -293.89128  15.5%     - 28148s
     0     0 -293.93465    0 1025 -347.70848 -293.93465  15.5%     - 28375s
     0     0 -293.97588    0 1026 -347.70848 -293.97588  15.5%     - 28427s
     0     0 -293.97588    0 1026 -347.70848 -293.97588  15.5%     - 28429s
     0     0 -294.48473    0 1119 -347.70848 -294.48473  15.3%     - 29224s
     0     0 -294.57418    0 1046 -347.70848 -294.57418  15.3%     - 29371s
     0     0 -294.57504    0 1034 -347.70848 -294.57504  15.3%     - 29388s
     0     0 -295.90936    0  905 -347.70848 -295.90936  14.9%     - 34751s
     0     0 -296.52626    0 1064 -347.70848 -296.52626  14.7%     - 35571s
     0     0 -296.52763    0 1056 -347.70848 -296.52763  14.7%     - 35576s
     0     0 -297.31363    0 1044 -347.70848 -297.31363  14.5%     - 36376s
     0     0 -297.73805    0  925 -347.70848 -297.73805  14.4%     - 37092s
     0     0 -297.76804    0 1025 -347.70848 -297.76804  14.4%     - 37133s
     0     0 -297.78607    0  932 -347.70848 -297.78607  14.4%     - 37226s
     0     0 -297.78607    0  932 -347.70848 -297.78607  14.4%     - 37228s
     0     0 -299.57208    0  942 -347.70848 -299.57208  13.8%     - 39650s
     0     0 -299.57549    0 1026 -347.70848 -299.57549  13.8%     - 39676s
     0     0 -299.57853    0 1034 -347.70848 -299.57853  13.8%     - 39700s
     0     0 -299.57853    0 1035 -347.70848 -299.57853  13.8%     - 39703s
     0     0 -300.43930    0 1158 -347.70848 -300.43930  13.6%     - 41585s
H    0     0                    -344.0622014 -300.43930  12.7%     - 41591s
     0     0 -300.56382    0 1154 -344.06220 -300.56382  12.6%     - 41708s
     0     0 -300.61297    0 1244 -344.06220 -300.61297  12.6%     - 41892s
     0     0 -300.62993    0 1250 -344.06220 -300.62993  12.6%     - 42021s
     0     0 -300.65311    0 1154 -344.06220 -300.65311  12.6%     - 42057s
     0     0 -300.65311    0 1155 -344.06220 -300.65311  12.6%     - 42060s
     0     0 -302.40811    0 1109 -344.06220 -302.40811  12.1%     - 47679s
     0     0 -302.42227    0 1008 -344.06220 -302.42227  12.1%     - 47710s
     0     0 -302.42227    0 1006 -344.06220 -302.42227  12.1%     - 47714s
     0     0 -303.10192    0 1021 -344.06220 -303.10192  11.9%     - 48734s
     0     0 -303.31963    0 1027 -344.06220 -303.31963  11.8%     - 49256s
     0     0 -303.50693    0 1148 -344.06220 -303.50693  11.8%     - 49728s
     0     0 -303.52218    0 1134 -344.06220 -303.52218  11.8%     - 49752s
     0     0 -303.71127    0 1025 -344.06220 -303.71127  11.7%     - 50549s
     0     0 -303.79128    0 1026 -344.06220 -303.79128  11.7%     - 51025s
     0     0 -303.79662    0 1118 -344.06220 -303.79662  11.7%     - 51276s
     0     0 -303.79680    0 1119 -344.06220 -303.79680  11.7%     - 51282s
     0     0 -304.69610    0 1032 -344.06220 -304.69610  11.4%     - 57688s
     0     0 -304.71708    0 1140 -344.06220 -304.71708  11.4%     - 57927s
     0     0 -304.72044    0 1139 -344.06220 -304.72044  11.4%     - 57945s
     0     0 -304.73221    0 1146 -344.06220 -304.73221  11.4%     - 58062s
     0     0 -304.73454    0 1139 -344.06220 -304.73454  11.4%     - 58077s
     0     0 -304.73454    0 1140 -344.06220 -304.73454  11.4%     - 58082s
     0     0 -306.07441    0 1181 -344.06220 -306.07441  11.0%     - 67546s
     0     0 -306.08338    0 1163 -344.06220 -306.08338  11.0%     - 67556s
     0     0 -306.09286    0 1163 -344.06220 -306.09286  11.0%     - 67571s
     0     0 -306.09346    0 1160 -344.06220 -306.09346  11.0%     - 67574s
     0     0 -307.96651    0 1016 -344.06220 -307.96651  10.5%     - 69623s
     0     0 -308.08018    0 1016 -344.06220 -308.08018  10.5%     - 69788s
     0     0 -308.11874    0  924 -344.06220 -308.11874  10.4%     - 69873s
     0     0 -308.11874    0  926 -344.06220 -308.11874  10.4%     - 69877s
     0     0 -308.11874    0  927 -344.06220 -308.11874  10.4%     - 69885s
     0     0 -308.15567    0 1027 -344.06220 -308.15567  10.4%     - 70012s
     0     0 -308.21244    0 1024 -344.06220 -308.21244  10.4%     - 70192s
     0     0 -308.23047    0 1128 -344.06220 -308.23047  10.4%     - 70366s
     0     0 -308.23308    0 1031 -344.06220 -308.23308  10.4%     - 70400s
     0     0 -308.23308    0 1032 -344.06220 -308.23308  10.4%     - 70405s
     0     0 -308.39695    0 1128 -344.06220 -308.39695  10.4%     - 70825s
     0     0 -308.52006    0 1124 -344.06220 -308.52006  10.3%     - 71220s
     0     0 -308.52921    0 1126 -344.06220 -308.52921  10.3%     - 71233s
     0     0 -308.55079    0 1029 -344.06220 -308.55079  10.3%     - 71311s
     0     0 -308.55713    0 1127 -344.06220 -308.55713  10.3%     - 71347s
     0     0 -308.55713    0 1128 -344.06220 -308.55713  10.3%     - 71348s
     0     0 -309.25683    0 1028 -344.06220 -309.25683  10.1%     - 72689s
     0     0 -309.29865    0 1028 -344.06220 -309.29865  10.1%     - 72801s
     0     0 -309.35408    0 1028 -344.06220 -309.35408  10.1%     - 72965s
     0     0 -309.35408    0 1031 -344.06220 -309.35408  10.1%     - 72967s
     0     0 -310.42458    0 1204 -344.06220 -310.42458  9.78%     - 75315s
     0     0 -310.57659    0 1119 -344.06220 -310.57659  9.73%     - 75350s
     0     0 -310.58561    0 1125 -344.06220 -310.58561  9.73%     - 75366s
     0     0 -310.59954    0 1121 -344.06220 -310.59954  9.73%     - 75381s
     0     0 -310.59954    0 1122 -344.06220 -310.59954  9.73%     - 75383s
     0     0 -311.28757    0 1209 -344.06220 -311.28757  9.53%     - 76783s
     0     0 -311.29782    0 1207 -344.06220 -311.29782  9.52%     - 76832s
     0     0 -311.29904    0 1207 -344.06220 -311.29904  9.52%     - 76854s
     0     0 -311.72274    0 1121 -344.06220 -311.72274  9.40%     - 77435s
     0     0 -311.78065    0 1123 -344.06220 -311.78065  9.38%     - 77729s
     0     0 -311.87387    0 1036 -344.06220 -311.87387  9.36%     - 78141s
     0     0 -311.91526    0 1038 -344.06220 -311.91526  9.34%     - 78348s
     0     0 -311.91526    0 1041 -344.06220 -311.91526  9.34%     - 78354s
     0     0 -312.30172    0 1130 -344.06220 -312.30172  9.23%     - 80754s
     0     0 -312.41794    0 1042 -344.06220 -312.41794  9.20%     - 81261s
     0     0 -312.45600    0 1138 -344.06220 -312.45600  9.19%     - 81459s
     0     0 -312.45921    0 1231 -344.06220 -312.45921  9.19%     - 81799s
     0     0 -312.46200    0 1230 -344.06220 -312.46200  9.18%     - 81953s
     0     0          -    0      -344.06220 -312.46200  9.18%     - 86400s

Cutting planes:
  Gomory: 4
  Zero half: 154

Explored 1 nodes (3234727 simplex iterations) in 86400.19 seconds
Thread count was 1 (of 80 available processors)

Solution count 7: -344.062 -347.708 -347.807 ... -13410.6

Time limit reached
Best objective -3.440622013774e+02, best bound -3.124619975998e+02, gap 9.1844%
